p cnf 191 2
 129 134 1477839956742082321 85 152 153 90 29 94 95 165 39 104 107 119 188 0
-188 -86 -58 -104 -37 -53 -59 -105 -122 -47 -19 -83 -96 -13 -90 -172 -186 -7 -128 -57 -1 128 1 7 13 19 37 172 47 53 57 186 58 59 188 83 86 90 96 104 105 122 0
